\ LP format - for model browsing. Use MPS format to capture full model detail.
Maximize
  10 x-1 + 15 x-2 + 10 x-3 + 15 x-4
Subject To
 R0: 4 x-1 + 4 x-2 + 4 x-3 + 4 x-4 <= 120
 R1: 4 x-1 + 2 x-2 <= 80
 R2: 2 x-1 + 5 x-2 <= 60
 R3: 5 x-3 + 3 x-4 <= 60
 R4: 5 x-3 + 6 x-4 <= 75
Bounds
End
